n = 8;

personas = ["jose", "julian", "diana", "juan", "david", "claudia", "edgar", "mario"];

num_next = 2;
next = array2d(1..num_next, 1..2, [
    5, 6,   % david y claudia juntos
    7, 8    % edgar y mario juntos
]);

num_separate = 3;
separate = array2d(1..num_separate, 1..2, [
    1, 2,   % jose y julian separados
    2, 3,   % julian y diana separados
    3, 4    % diana y juan separados
]);

num_distance = 1;
distance = array2d(1..num_distance, 1..3, [
    1, 5, 3   % jose y david máximo 3 posiciones de diferencia
]);
